rc2_10_1

VEHICLE
NUMBER   CAPACITY
250     1000

CUSTOMER
CUST NO. XCOORD.  YCOORD.  DEMAND  READY TIME DUE DATE  SERVICE TIME

0   250    250     0     0    7284     0
356 128 113 22 1451 1571 10
800 93 96 20 902 1022 10
759 140 108 29 4285 4405 10
270 178 135 21 6055 6175 10
34 188 119 44 3899 4019 10
305 111 178 18 566 686 10
306 91 101 10 1193 1313 10
28 80 117 24 3297 3417 10
43 111 192 11 4798 4918 10
730 195 111 15 3992 4112 10
312 94 97 20 856 976 10
254 75 118 21 1636 1756 10
425 103 177 28 2506 2626 10
536 105 181 19 6125 6245 10
137 97 93 20 962 1082 10
788 87 96 30 1127 1247 10
525 88 95 20 1081 1201 10
596 95 92 20 1011 1131 10
799 146 188 6 4940 5060 10
27 130 140 17 776 896 10
904 143 158 12 550 670 10
342 96 97 20 808 928 10
423 149 98 4 4660 4780 10
789 140 137 32 2279 2399 10
